(set-logic QF_UF)
(declare-fun A0 () Bool)
(declare-fun A1 () Bool)
(declare-fun A2 () Bool)
(declare-fun A3 () Bool)
(declare-fun A4 () Bool)
(declare-fun A5 () Bool)
(declare-fun A6 () Bool)
(declare-fun A7 () Bool)
(declare-fun A8 () Bool)
(declare-fun A9 () Bool)
(declare-fun A10 () Bool)
(declare-fun A11 () Bool)
(declare-fun A12 () Bool)
(declare-fun A13 () Bool)
(declare-fun A14 () Bool)
(declare-fun A15 () Bool)
(declare-fun A16 () Bool)
(declare-fun A17 () Bool)
(declare-fun A18 () Bool)
(declare-fun A19 () Bool)
(declare-fun A20 () Bool)
(declare-fun A21 () Bool)
(declare-fun A22 () Bool)
(declare-fun A23 () Bool)
(declare-fun A24 () Bool)
(assert (let ((.def_0 (or A7 A1))) (let ((.def_1 (and A20 A16))) (let ((.def_2 (or .def_1 .def_0))) (let ((.def_3 (not A11))) (let ((.def_4 (not A13))) (let ((.def_5 (or .def_4 .def_3))) (let ((.def_6 (not A9))) (let ((.def_7 (= .def_6 A24))) (let ((.def_8 (not .def_7))) (let ((.def_9 (or .def_8 .def_5))) (let ((.def_10 (not .def_9))) (let ((.def_11 (or .def_10 .def_2))) (let ((.def_12 (not A22))) (let ((.def_13 (and A20 .def_12))) (let ((.def_14 (not A21))) (let ((.def_15 (and .def_4 .def_14))) (let ((.def_16 (or .def_15 .def_13))) (let ((.def_17 (not A5))) (let ((.def_18 (or A15 .def_17))) (let ((.def_19 (not .def_18))) (let ((.def_20 (or A19 A9))) (let ((.def_21 (and .def_20 .def_19))) (let ((.def_22 (and .def_21 .def_16))) (let ((.def_23 (not .def_22))) (let ((.def_24 (or .def_23 .def_11))) (let ((.def_25 (not .def_24))) (let ((.def_26 (not A23))) (let ((.def_27 (or .def_17 .def_26))) (let ((.def_28 (and A24 A9))) (let ((.def_29 (or .def_28 .def_27))) (let ((.def_30 (not .def_29))) (let ((.def_31 (or A20 A24))) (let ((.def_32 (not .def_31))) (let ((.def_33 (or A19 A14))) (let ((.def_34 (= .def_33 .def_32))) (let ((.def_35 (or .def_34 .def_30))) (let ((.def_36 (and A9 A12))) (let ((.def_37 (and A2 A11))) (let ((.def_38 (or .def_37 .def_36))) (let ((.def_39 (not .def_38))) (let ((.def_40 (not A20))) (let ((.def_41 (or .def_40 A4))) (let ((.def_42 (not A15))) (let ((.def_43 (or A10 .def_42))) (let ((.def_44 (not .def_43))) (let ((.def_45 (or .def_44 .def_41))) (let ((.def_46 (not .def_45))) (let ((.def_47 (= .def_46 .def_39))) (let ((.def_48 (and .def_47 .def_35))) (let ((.def_49 (or .def_48 .def_25))) (let ((.def_50 (or .def_17 A0))) (let ((.def_51 (not .def_50))) (let ((.def_52 (and A2 A12))) (let ((.def_53 (or .def_52 .def_51))) (let ((.def_54 (not A7))) (let ((.def_55 (or .def_54 .def_54))) (let ((.def_56 (not .def_55))) (let ((.def_57 (not A6))) (let ((.def_58 (or .def_57 A5))) (let ((.def_59 (not .def_58))) (let ((.def_60 (or .def_59 .def_56))) (let ((.def_61 (and .def_60 .def_53))) (let ((.def_62 (not .def_61))) (let ((.def_63 (not A10))) (let ((.def_64 (and .def_63 .def_4))) (let ((.def_65 (not .def_64))) (let ((.def_66 (and .def_63 A13))) (let ((.def_67 (not .def_66))) (let ((.def_68 (and .def_67 .def_65))) (let ((.def_69 (and A12 A24))) (let ((.def_70 (and A22 A6))) (let ((.def_71 (not .def_70))) (let ((.def_72 (and .def_71 .def_69))) (let ((.def_73 (or .def_72 .def_68))) (let ((.def_74 (not .def_73))) (let ((.def_75 (or .def_74 .def_62))) (let ((.def_76 (or .def_26 A16))) (let ((.def_77 (and .def_17 A1))) (let ((.def_78 (not .def_77))) (let ((.def_79 (and .def_78 .def_76))) (let ((.def_80 (not .def_79))) (let ((.def_81 (or A3 A7))) (let ((.def_82 (= A23 A1))) (let ((.def_83 (not .def_82))) (let ((.def_84 (or .def_83 .def_81))) (let ((.def_85 (not .def_84))) (let ((.def_86 (and .def_85 .def_80))) (let ((.def_87 (not .def_86))) (let ((.def_88 (or A21 .def_57))) (let ((.def_89 (not A19))) (let ((.def_90 (or .def_89 A9))) (let ((.def_91 (and .def_90 .def_88))) (let ((.def_92 (and A7 A21))) (let ((.def_93 (and .def_3 A22))) (let ((.def_94 (or .def_93 .def_92))) (let ((.def_95 (not .def_94))) (let ((.def_96 (and .def_95 .def_91))) (let ((.def_97 (and .def_96 .def_87))) (let ((.def_98 (and .def_97 .def_75))) (let ((.def_99 (not .def_98))) (let ((.def_100 (or .def_99 .def_49))) (let ((.def_101 (or A3 A18))) (let ((.def_102 (or A7 A4))) (let ((.def_103 (not .def_102))) (let ((.def_104 (and .def_103 .def_101))) (let ((.def_105 (not .def_104))) (let ((.def_106 (and A7 A17))) (let ((.def_107 (not .def_106))) (let ((.def_108 (or A0 A7))) (let ((.def_109 (not .def_108))) (let ((.def_110 (or .def_109 .def_107))) (let ((.def_111 (not .def_110))) (let ((.def_112 (or .def_111 .def_105))) (let ((.def_113 (not .def_112))) (let ((.def_114 (or A20 A21))) (let ((.def_115 (not A3))) (let ((.def_116 (or A16 .def_115))) (let ((.def_117 (or .def_116 .def_114))) (let ((.def_118 (not .def_117))) (let ((.def_119 (or A24 .def_14))) (let ((.def_120 (not .def_119))) (let ((.def_121 (and A24 .def_42))) (let ((.def_122 (and .def_121 .def_120))) (let ((.def_123 (and .def_122 .def_118))) (let ((.def_124 (not .def_123))) (let ((.def_125 (or .def_124 .def_113))) (let ((.def_126 (not .def_125))) (let ((.def_127 (not A2))) (let ((.def_128 (and A7 .def_127))) (let ((.def_129 (not .def_128))) (let ((.def_130 (not A18))) (let ((.def_131 (not A14))) (let ((.def_132 (or .def_131 .def_130))) (let ((.def_133 (and .def_132 .def_129))) (let ((.def_134 (not .def_133))) (let ((.def_135 (= A13 .def_131))) (let ((.def_136 (and .def_17 A2))) (let ((.def_137 (not .def_136))) (let ((.def_138 (= .def_137 .def_135))) (let ((.def_139 (and .def_138 .def_134))) (let ((.def_140 (not .def_139))) (let ((.def_141 (and A12 .def_6))) (let ((.def_142 (or A16 A5))) (let ((.def_143 (and .def_142 .def_141))) (let ((.def_144 (or A20 .def_57))) (let ((.def_145 (not .def_144))) (let ((.def_146 (or A12 A15))) (let ((.def_147 (and .def_146 .def_145))) (let ((.def_148 (not .def_147))) (let ((.def_149 (or .def_148 .def_143))) (let ((.def_150 (or .def_149 .def_140))) (let ((.def_151 (not .def_150))) (let ((.def_152 (= .def_151 .def_126))) (let ((.def_153 (not .def_152))) (let ((.def_154 (not A4))) (let ((.def_155 (or .def_130 .def_154))) (let ((.def_156 (not .def_155))) (let ((.def_157 (or A1 A15))) (let ((.def_158 (not .def_157))) (let ((.def_159 (or .def_158 .def_156))) (let ((.def_160 (or A2 .def_131))) (let ((.def_161 (not .def_160))) (let ((.def_162 (not A8))) (let ((.def_163 (= .def_40 .def_162))) (let ((.def_164 (not .def_163))) (let ((.def_165 (and .def_164 .def_161))) (let ((.def_166 (or .def_165 .def_159))) (let ((.def_167 (not A24))) (let ((.def_168 (and .def_167 A21))) (let ((.def_169 (or A15 .def_63))) (let ((.def_170 (not .def_169))) (let ((.def_171 (= .def_170 .def_168))) (let ((.def_172 (or A20 A13))) (let ((.def_173 (not .def_172))) (let ((.def_174 (and A24 .def_40))) (let ((.def_175 (and .def_174 .def_173))) (let ((.def_176 (not .def_175))) (let ((.def_177 (or .def_176 .def_171))) (let ((.def_178 (and .def_177 .def_166))) (let ((.def_179 (not .def_178))) (let ((.def_180 (not A12))) (let ((.def_181 (= A1 .def_180))) (let ((.def_182 (not .def_181))) (let ((.def_183 (not A16))) (let ((.def_184 (or A8 .def_183))) (let ((.def_185 (not .def_184))) (let ((.def_186 (and .def_185 .def_182))) (let ((.def_187 (not .def_186))) (let ((.def_188 (= A9 .def_54))) (let ((.def_189 (not .def_188))) (let ((.def_190 (and .def_12 A15))) (let ((.def_191 (not .def_190))) (let ((.def_192 (and .def_191 .def_189))) (let ((.def_193 (and .def_192 .def_187))) (let ((.def_194 (not .def_193))) (let ((.def_195 (and A20 .def_162))) (let ((.def_196 (and .def_131 .def_89))) (let ((.def_197 (and .def_196 .def_195))) (let ((.def_198 (not .def_197))) (let ((.def_199 (or A6 .def_89))) (let ((.def_200 (not .def_199))) (let ((.def_201 (not A1))) (let ((.def_202 (or .def_201 .def_201))) (let ((.def_203 (not .def_202))) (let ((.def_204 (and .def_203 .def_200))) (let ((.def_205 (and .def_204 .def_198))) (let ((.def_206 (or .def_205 .def_194))) (let ((.def_207 (not .def_206))) (let ((.def_208 (and .def_207 .def_179))) (let ((.def_209 (not .def_208))) (let ((.def_210 (and .def_209 .def_153))) (let ((.def_211 (not .def_210))) (let ((.def_212 (and .def_211 .def_100))) (let ((.def_213 (not .def_212))) (let ((.def_214 (not A17))) (let ((.def_215 (and A16 .def_214))) (let ((.def_216 (and .def_12 A2))) (let ((.def_217 (or .def_216 .def_215))) (let ((.def_218 (and A18 .def_6))) (let ((.def_219 (and A16 A2))) (let ((.def_220 (and .def_219 .def_218))) (let ((.def_221 (or .def_220 .def_217))) (let ((.def_222 (not .def_221))) (let ((.def_223 (or A12 A0))) (let ((.def_224 (and A24 .def_6))) (let ((.def_225 (and .def_224 .def_223))) (let ((.def_226 (not .def_225))) (let ((.def_227 (or A5 A13))) (let ((.def_228 (not .def_227))) (let ((.def_229 (= A1 .def_162))) (let ((.def_230 (or .def_229 .def_228))) (let ((.def_231 (= .def_230 .def_226))) (let ((.def_232 (not .def_231))) (let ((.def_233 (= .def_232 .def_222))) (let ((.def_234 (not .def_233))) (let ((.def_235 (not A0))) (let ((.def_236 (and .def_235 A3))) (let ((.def_237 (not .def_236))) (let ((.def_238 (or .def_130 A20))) (let ((.def_239 (not .def_238))) (let ((.def_240 (= .def_239 .def_237))) (let ((.def_241 (not .def_240))) (let ((.def_242 (and .def_89 .def_57))) (let ((.def_243 (not .def_242))) (let ((.def_244 (and A20 A8))) (let ((.def_245 (or .def_244 .def_243))) (let ((.def_246 (not .def_245))) (let ((.def_247 (or .def_246 .def_241))) (let ((.def_248 (not .def_247))) (let ((.def_249 (or .def_131 .def_167))) (let ((.def_250 (or .def_131 .def_54))) (let ((.def_251 (and .def_250 .def_249))) (let ((.def_252 (or A10 .def_127))) (let ((.def_253 (and A19 .def_115))) (let ((.def_254 (or .def_253 .def_252))) (let ((.def_255 (and .def_254 .def_251))) (let ((.def_256 (not .def_255))) (let ((.def_257 (and .def_256 .def_248))) (let ((.def_258 (not .def_257))) (let ((.def_259 (or .def_258 .def_234))) (let ((.def_260 (and A0 .def_214))) (let ((.def_261 (not .def_260))) (let ((.def_262 (or .def_115 .def_180))) (let ((.def_263 (and .def_262 .def_261))) (let ((.def_264 (and A11 .def_6))) (let ((.def_265 (= A24 .def_127))) (let ((.def_266 (not .def_265))) (let ((.def_267 (and .def_266 .def_264))) (let ((.def_268 (not .def_267))) (let ((.def_269 (or .def_268 .def_263))) (let ((.def_270 (or .def_127 .def_235))) (let ((.def_271 (and A22 .def_201))) (let ((.def_272 (and .def_271 .def_270))) (let ((.def_273 (= A11 .def_6))) (let ((.def_274 (and A7 .def_130))) (let ((.def_275 (not .def_274))) (let ((.def_276 (or .def_275 .def_273))) (let ((.def_277 (not .def_276))) (let ((.def_278 (or .def_277 .def_272))) (let ((.def_279 (not .def_278))) (let ((.def_280 (and .def_279 .def_269))) (let ((.def_281 (or A5 .def_40))) (let ((.def_282 (not .def_281))) (let ((.def_283 (or .def_57 A23))) (let ((.def_284 (not .def_283))) (let ((.def_285 (= .def_284 .def_282))) (let ((.def_286 (and .def_14 .def_235))) (let ((.def_287 (not .def_286))) (let ((.def_288 (and A2 .def_235))) (let ((.def_289 (not .def_288))) (let ((.def_290 (= .def_289 .def_287))) (let ((.def_291 (not .def_290))) (let ((.def_292 (or .def_291 .def_285))) (let ((.def_293 (not .def_292))) (let ((.def_294 (and A8 A22))) (let ((.def_295 (and .def_201 A11))) (let ((.def_296 (not .def_295))) (let ((.def_297 (or .def_296 .def_294))) (let ((.def_298 (or A13 .def_54))) (let ((.def_299 (not .def_298))) (let ((.def_300 (or A0 .def_40))) (let ((.def_301 (and .def_300 .def_299))) (let ((.def_302 (or .def_301 .def_297))) (let ((.def_303 (not .def_302))) (let ((.def_304 (= .def_303 .def_293))) (let ((.def_305 (not .def_304))) (let ((.def_306 (and .def_305 .def_280))) (let ((.def_307 (or .def_306 .def_259))) (let ((.def_308 (not .def_307))) (let ((.def_309 (or A17 A1))) (let ((.def_310 (not .def_309))) (let ((.def_311 (or A15 .def_180))) (let ((.def_312 (or .def_311 .def_310))) (let ((.def_313 (= .def_3 A17))) (let ((.def_314 (and .def_235 A0))) (let ((.def_315 (not .def_314))) (let ((.def_316 (and .def_315 .def_313))) (let ((.def_317 (not .def_316))) (let ((.def_318 (or .def_317 .def_312))) (let ((.def_319 (or A11 .def_3))) (let ((.def_320 (and .def_63 A12))) (let ((.def_321 (not .def_320))) (let ((.def_322 (or .def_321 .def_319))) (let ((.def_323 (and A23 .def_115))) (let ((.def_324 (not .def_323))) (let ((.def_325 (= A2 .def_4))) (let ((.def_326 (or .def_325 .def_324))) (let ((.def_327 (and .def_326 .def_322))) (let ((.def_328 (not .def_327))) (let ((.def_329 (= .def_328 .def_318))) (let ((.def_330 (not .def_329))) (let ((.def_331 (and .def_6 .def_54))) (let ((.def_332 (not .def_331))) (let ((.def_333 (or .def_54 .def_6))) (let ((.def_334 (not .def_333))) (let ((.def_335 (and .def_334 .def_332))) (let ((.def_336 (not .def_335))) (let ((.def_337 (or .def_40 A23))) (let ((.def_338 (or .def_57 .def_63))) (let ((.def_339 (and .def_338 .def_337))) (let ((.def_340 (and .def_339 .def_336))) (let ((.def_341 (not .def_340))) (let ((.def_342 (and A19 A14))) (let ((.def_343 (or A0 A19))) (let ((.def_344 (not .def_343))) (let ((.def_345 (= .def_344 .def_342))) (let ((.def_346 (not .def_345))) (let ((.def_347 (and .def_4 A8))) (let ((.def_348 (not .def_347))) (let ((.def_349 (or A14 A22))) (let ((.def_350 (not .def_349))) (let ((.def_351 (and .def_350 .def_348))) (let ((.def_352 (not .def_351))) (let ((.def_353 (or .def_352 .def_346))) (let ((.def_354 (or .def_353 .def_341))) (let ((.def_355 (= .def_354 .def_330))) (let ((.def_356 (and A15 A13))) (let ((.def_357 (not .def_356))) (let ((.def_358 (and .def_180 .def_201))) (let ((.def_359 (not .def_358))) (let ((.def_360 (or .def_359 .def_357))) (let ((.def_361 (and .def_167 .def_127))) (let ((.def_362 (and .def_3 A16))) (let ((.def_363 (and .def_362 .def_361))) (let ((.def_364 (and .def_363 .def_360))) (let ((.def_365 (and A7 A10))) (let ((.def_366 (not .def_365))) (let ((.def_367 (or A24 .def_4))) (let ((.def_368 (or .def_367 .def_366))) (let ((.def_369 (not .def_368))) (let ((.def_370 (or .def_131 .def_115))) (let ((.def_371 (not .def_370))) (let ((.def_372 (and .def_131 A22))) (let ((.def_373 (or .def_372 .def_371))) (let ((.def_374 (= .def_373 .def_369))) (let ((.def_375 (not .def_374))) (let ((.def_376 (or .def_375 .def_364))) (let ((.def_377 (or A16 A16))) (let ((.def_378 (not .def_377))) (let ((.def_379 (and A0 A14))) (let ((.def_380 (not .def_379))) (let ((.def_381 (= .def_380 .def_378))) (let ((.def_382 (and .def_131 .def_14))) (let ((.def_383 (not .def_382))) (let ((.def_384 (= .def_127 A20))) (let ((.def_385 (and .def_384 .def_383))) (let ((.def_386 (or .def_385 .def_381))) (let ((.def_387 (not .def_386))) (let ((.def_388 (or A24 .def_131))) (let ((.def_389 (and .def_201 A5))) (let ((.def_390 (not .def_389))) (let ((.def_391 (and .def_390 .def_388))) (let ((.def_392 (not .def_391))) (let ((.def_393 (and A9 .def_89))) (let ((.def_394 (not .def_393))) (let ((.def_395 (and .def_154 .def_26))) (let ((.def_396 (not .def_395))) (let ((.def_397 (and .def_396 .def_394))) (let ((.def_398 (or .def_397 .def_392))) (let ((.def_399 (and .def_398 .def_387))) (let ((.def_400 (and .def_399 .def_376))) (let ((.def_401 (not .def_400))) (let ((.def_402 (and .def_401 .def_355))) (let ((.def_403 (and .def_402 .def_308))) (let ((.def_404 (not .def_403))) (let ((.def_405 (or .def_404 .def_213))) .def_405)))))))))))))))))))))))))))))))))))))))))))))))))))))))))))))))))))))))))))))))))))))))))))))))))))))))))))))))))))))))))))))))))))))))))))))))))))))))))))))))))))))))))))))))))))))))))))))))))))))))))))))))))))))))))))))))))))))))))))))))))))))))))))))))))))))))))))))))))))))))))))))))))))))))))))))))))))))))))))))))))))))))))))))))))))))))))))))))))))))))))))))))))))))))))))))))))))))))))))))))))))))))
(check-sat)
